Name: 咖啡因 Caffeine
Precursor_type: [M+H]+
PrecursorMZ: 195.0877
Formula: C8H10N4O2
Ion_mode: P
Collision_energy: 30
Num Peaks: 28
59.5771 1238
62.9763 145
64.8585 21
65.1443 87
67.3085 31
68.1807 1052
72.6389 290
73.5477 130
74.0596 23
78.6804 53
88.3141 666
104.4532 294
111.7944 91
122.2441 410
124.5252 283
130.7294 1132
143.9802 86
151.4181 31
155.1520 478
157.0392 211
158.7646 877
161.8755 282
171.6953 98
173.5799 302
177.8400 186
179.4741 1233
187.0607 372
195.0877 1000

Name: Reserpine
Precursor_type: [M+H]+
PrecursorMZ: 609.2807
Formula: C33H40N2O9
Ion_mode: P
Collision_energy: 35
Num Peaks: 34
73.2320 544
110.4850 63
132.2627 297
134.4189 20
169.5663 129
182.6905 1246
190.6176 232
204.0540 385
220.7800 667
222.7979 631
273.3990 643
286.6343 28
303.0673 23
334.1623 54
335.0526 112
341.1513 520
344.3636 28
367.8743 20
405.1486 321
413.3474 70
417.1228 626
439.9931 596
445.4838 193
450.1022 25
457.2648 113
461.1614 1069
475.9510 20
490.1466 243
506.0270 256
509.9785 243
522.6962 1116
555.3667 74
558.7719 42
609.2807 1000

Name: Verapamil
Precursor_type: [M+H]+
PrecursorMZ: 455.2904
Formula: C27H38N2O4
Ion_mode: P
Collision_energy: 40
Num Peaks: 31
64.3646 1249
149.2268 58
152.2044 50
164.9003 331
166.4795 585
172.7996 861
182.6606 25
193.7823 682
218.4780 470
226.7891 45
228.8008 608
232.3958 775
255.9468 148
278.1700 440
291.1512 32
302.8065 1175
307.8265 37
315.6573 788
327.5487 118
359.0142 33
363.6497 1274
375.9336 241
404.8717 170
420.2110 566
424.2930 70
428.5864 566
438.4190 73
448.9100 33
453.4582 120
454.9043 292
455.2904 1000

Name: Glutathione
Precursor_type: [M-H]-
PrecursorMZ: 306.0765
Formula: C10H17N3O6S
Ion_mode: N
Collision_energy: 20
Num Peaks: 29
51.7843 766
54.5603 29
65.2769 69
80.5077 497
86.7600 272
88.4432 1186
94.5056 320
96.6927 229
116.5333 183
133.9415 202
162.8765 911
171.2596 730
180.9433 270
182.1371 584
184.4421 31
185.2406 524
186.6695 24
192.8970 511
205.7161 39
208.1430 368
224.9675 1143
235.9525 58
248.4873 146
254.8324 803
273.4315 40
297.3391 732
303.3185 50
306.0195 1337
306.0765 1000

Name: Sulfamethazine
Precursor_type: [M+H]+
PrecursorMZ: 279.0916
Formula: C12H14N4O2S
Ion_mode: P
Collision_energy: 25
Num Peaks: 31
54.5706 1195
60.0895 412
66.6882 22
71.0724 164
76.6344 724
78.0837 1034
83.0666 606
88.4538 615
96.5531 112
108.2679 706
116.5269 533
117.1095 65
119.0504 40
125.3120 52
134.7595 94
148.5001 587
153.3470 45
158.2504 20
162.7331 20
167.1895 262
181.9346 700
182.8189 29
187.4950 169
209.3931 577
223.6877 225
230.3427 1292
243.7067 574
249.4047 343
251.0544 116
262.0707 33
279.0916 1000

Name: Leucine-Enkephalin
Precursor_type: [M+H]+
PrecursorMZ: 556.2766
Formula: C28H37N5O7
Ion_mode: P
Collision_energy: 45
Num Peaks: 34
51.8824 520
73.1830 57
78.0839 109
93.6560 82
130.7762 69
133.8170 526
144.5868 36
174.2996 144
175.0845 337
180.8532 753
184.8928 539
187.5966 511
194.7207 487
200.2842 215
215.1448 326
218.7150 1064
236.4292 230
245.5055 413
270.7529 682
278.8129 278
285.6865 520
309.7112 529
330.6429 751
356.0419 25
390.9595 344
393.4514 633
404.0188 22
480.2446 245
495.4569 75
500.9325 23
542.0919 1164
547.7457 241
554.8092 199
556.2766 1000
